proyfinal/src/viki/013/experimentInOfficeAgust.take6.output/49ec607b-0ee3-428e-b85c-f9ee6898d328.als.dat
{'cnf.clauses': '118081',
 'cnf.totvars': '69608',
 'conflict literals': '41',
 'conflicts': '16',
 'decisions': '5909',
 'memused.mb': '15.47',
 'outcome': 'UNSAT',
 'propagations': '29410',
 'restarts': '1',
 'solver.msecs': 33,
 'task.msecs': 88}
