proyfinal/src/viki/013/experimentInOfficeAgust.take6.output/49ec607b-0ee3-428e-b85c-f9ee6898d328.als.out
Reading from standard input... Use '--help' for help.
============================[ Problem Statistics ]=============================
|                                                                             |
|  Number of variables:         69608                                         |
|  Number of clauses:          118081                                         |
|  Parse time:                   0.03 s                                       |
|                                                                             |
============================[ Search Statistics ]==============================
| Conflicts |          ORIGINAL         |          LEARNT          | Progress |
|           |    Vars  Clauses Literals |    Limit  Clauses Lit/Cl |          |
===============================================================================
===============================================================================
restarts              : 1
conflicts             : 16             (482 /sec)
decisions             : 5909           (0.00 % random) (178019 /sec)
propagations          : 29410          (886030 /sec)
conflict literals     : 41             (0.00 % deleted)
Memory used           : 15.47 MB
CPU time              : 0.033193 s

UNSATISFIABLE
